NAME : n100w160.004.814.tour
COMMENT : Length = 814
COMMENT : Found by LKH [Keld Helsgaun] Tue Nov  7 19:45:16 2017
TYPE : TOUR
DIMENSION : 101
TOUR_SECTION
1
40
45
5
93
27
78
4
99
12
47
43
60
88
67
33
84
9
82
39
13
63
77
85
76
8
36
42
44
49
22
71
56
38
37
19
73
46
50
75
74
17
35
65
68
80
101
29
16
48
24
87
96
95
55
64
69
18
94
61
66
57
10
7
70
79
26
90
86
3
30
59
98
14
97
100
28
15
51
72
58
53
62
25
92
2
54
34
31
20
41
23
21
11
52
89
91
81
6
83
32
-1
EOF
